nbNodes = 42;
nbVehi = 10;
nbServi = 7;

e = 
 [ 0,   48,  216,   59,   33,  111,   54,  363,  356,  462,  175,  315,  383,  408,   49,  123,  278,  417,   63,  467,  402,  225,   69,  409,  312,  223,  420,  295,  122,   70,  277,  424,  380,  103,  386,   89,  231,  327,  437,  259,  196,    0,
];

l = 
 [480, 141, 282, 173, 129, 229, 117, 449, 462, 576, 293, 394, 469, 497, 167, 210, 390, 509, 153, 534, 508, 324, 141, 471, 387, 328, 536, 393, 202, 165, 351, 525, 445, 168, 487, 193, 310, 406, 526, 349, 277, 480,
];

a = 
 [|  1,  1,  1,  1,  1,  1,  1,
 |  1,  1,  1,  1,  1,  1,  1,
 |  1,  1,  1,  1,  1,  1,  1,
 |  1,  1,  1,  1,  1,  1,  1,
 |  1,  1,  1,  1,  1,  1,  1,
 |  1,  1,  1,  1,  1,  1,  1,
 |  1,  1,  1,  1,  1,  1,  1,
 |  1,  1,  1,  1,  1,  1,  1,
 |  1,  1,  1,  1,  1,  1,  1,
 |  1,  1,  1,  1,  1,  1,  1,
 |];

p = array3d(1..nbNodes,1..nbVehi,1..nbServi,
[  0,  0,  0,  0,  0,  0,  0,	  0,  0,  0,  0,  0,  0,  0,	  0,  0,  0,  0,  0,  0,  0,	  0,  0,  0,  0,  0,  0,  0,	  0,  0,  0,  0,  0,  0,  0,	  0,  0,  0,  0,  0,  0,  0,	  0,  0,  0,  0,  0,  0,  0,	  0,  0,  0,  0,  0,  0,  0,	  0,  0,  0,  0,  0,  0,  0,	  0,  0,  0,  0,  0,  0,  0,	
 12, 16, 17, 13, 13, 17, 14,	 16, 14, 14, 13, 15, 10, 11,	 15, 15, 12, 16, 12, 13, 12,	 12, 14, 10, 12, 13, 17, 10,	 15, 14, 12, 17, 13, 11, 12,	 16, 10, 17, 14, 14, 13, 10,	 11, 13, 11, 16, 10, 13, 15,	 12, 16, 17, 14, 12, 17, 16,	 15, 17, 16, 13, 13, 10, 12,	 16, 11, 15, 14, 11, 14, 11,	
 13, 13, 15, 15, 14, 12, 11,	 14, 12, 10, 14, 12, 15, 15,	 11, 13, 11, 10, 10, 10, 11,	 11, 14, 12, 14, 14, 13, 10,	 15, 15, 13, 13, 12, 10, 10,	 14, 13, 15, 12, 13, 10, 10,	 15, 15, 13, 10, 10, 13, 15,	 14, 13, 14, 10, 15, 14, 14,	 11, 11, 12, 11, 10, 10, 12,	 10, 10, 10, 14, 11, 15, 14,	
 14, 13, 15, 14, 11, 10, 12,	 15, 11, 11, 14, 14, 14, 14,	 12, 12, 10, 13, 14, 12, 12,	 12, 10, 12, 11, 11, 12, 15,	 12, 10, 12, 11, 13, 11, 13,	 12, 15, 15, 12, 11, 15, 14,	 13, 13, 10, 13, 13, 10, 11,	 11, 10, 13, 12, 11, 10, 13,	 10, 10, 10, 10, 10, 12, 11,	 12, 11, 12, 12, 15, 10, 12,	
 14, 15, 10, 15, 10, 14, 13,	 13, 14, 12, 13, 13, 13, 15,	 12, 13, 10, 12, 12, 14, 12,	 12, 15, 12, 12, 14, 12, 15,	 11, 12, 11, 15, 11, 10, 15,	 15, 14, 10, 13, 11, 12, 10,	 12, 15, 13, 14, 11, 13, 14,	 13, 15, 14, 13, 14, 10, 10,	 11, 11, 13, 12, 13, 12, 10,	 13, 12, 15, 12, 15, 15, 15,	
 10, 17, 11, 12, 10, 16, 12,	 11, 17, 16, 16, 17, 12, 16,	 15, 13, 10, 14, 10, 15, 15,	 11, 15, 11, 12, 12, 16, 15,	 17, 17, 10, 17, 16, 12, 11,	 16, 10, 13, 10, 10, 11, 16,	 17, 13, 14, 14, 16, 14, 11,	 16, 11, 16, 10, 17, 17, 12,	 11, 15, 17, 10, 14, 10, 17,	 12, 12, 10, 10, 12, 13, 10,	
 12, 10, 11, 15, 11, 11, 10,	 10, 14, 13, 12, 13, 15, 10,	 14, 10, 11, 11, 13, 10, 15,	 15, 12, 12, 15, 10, 10, 15,	 15, 15, 10, 15, 13, 15, 15,	 15, 10, 15, 13, 12, 10, 15,	 14, 15, 14, 12, 15, 15, 12,	 12, 13, 11, 15, 10, 14, 12,	 14, 12, 11, 11, 10, 15, 11,	 13, 14, 14, 12, 13, 11, 13,	
 11, 15, 16, 13, 12, 15, 10,	 15, 13, 14, 11, 16, 13, 13,	 15, 12, 16, 13, 10, 14, 15,	 14, 14, 10, 12, 11, 13, 11,	 10, 15, 10, 12, 13, 14, 13,	 15, 12, 13, 11, 13, 15, 10,	 13, 12, 13, 16, 12, 12, 12,	 10, 15, 11, 14, 10, 16, 15,	 11, 11, 14, 10, 16, 14, 10,	 11, 10, 13, 16, 10, 10, 16,	
 14, 15, 16, 15, 15, 11, 12,	 11, 13, 15, 16, 16, 14, 14,	 16, 11, 10, 16, 12, 14, 14,	 10, 16, 14, 11, 16, 10, 15,	 15, 10, 14, 10, 14, 12, 15,	 10, 13, 10, 16, 14, 13, 16,	 14, 10, 11, 11, 12, 11, 15,	 12, 15, 12, 12, 14, 16, 11,	 12, 10, 10, 15, 15, 14, 15,	 12, 16, 11, 11, 10, 16, 10,	
 14, 13, 13, 13, 15, 12, 15,	 13, 15, 14, 14, 12, 15, 13,	 15, 13, 13, 11, 15, 12, 12,	 11, 11, 11, 10, 15, 12, 11,	 14, 13, 11, 12, 10, 15, 13,	 14, 15, 11, 15, 13, 13, 13,	 15, 12, 11, 12, 13, 14, 13,	 12, 14, 15, 12, 15, 14, 10,	 12, 10, 15, 11, 14, 10, 13,	 12, 13, 15, 14, 13, 10, 14,	
 16, 14, 15, 12, 12, 14, 12,	 11, 12, 13, 12, 10, 11, 10,	 15, 11, 15, 16, 16, 11, 15,	 13, 11, 15, 12, 11, 10, 16,	 11, 12, 16, 10, 14, 12, 11,	 16, 10, 13, 10, 10, 14, 11,	 11, 15, 16, 16, 10, 15, 15,	 14, 16, 12, 10, 15, 10, 10,	 10, 15, 16, 16, 15, 13, 15,	 12, 16, 14, 11, 14, 10, 10,	
 14, 12, 16, 13, 11, 15, 10,	 11, 13, 14, 13, 11, 16, 11,	 16, 14, 11, 14, 10, 11, 12,	 15, 14, 10, 10, 11, 14, 16,	 15, 12, 14, 11, 14, 13, 14,	 15, 10, 15, 14, 13, 12, 10,	 12, 16, 11, 12, 13, 13, 14,	 11, 12, 16, 16, 14, 16, 14,	 16, 11, 11, 12, 13, 14, 13,	 11, 10, 16, 14, 15, 14, 10,	
 10, 14, 15, 12, 11, 15, 12,	 12, 16, 10, 13, 11, 16, 10,	 13, 16, 14, 12, 10, 13, 15,	 12, 10, 16, 11, 16, 15, 15,	 14, 10, 13, 14, 12, 10, 10,	 13, 15, 10, 15, 14, 10, 16,	 13, 10, 16, 14, 14, 11, 10,	 14, 15, 13, 14, 13, 10, 15,	 12, 16, 12, 15, 14, 15, 12,	 10, 15, 10, 13, 11, 11, 10,	
 10, 14, 12, 12, 14, 17, 14,	 14, 17, 14, 15, 13, 12, 15,	 11, 12, 16, 17, 15, 14, 11,	 13, 14, 10, 12, 15, 14, 11,	 11, 16, 12, 12, 13, 15, 14,	 17, 14, 10, 14, 13, 14, 11,	 17, 16, 16, 10, 11, 14, 17,	 16, 10, 11, 11, 15, 11, 13,	 12, 15, 15, 13, 14, 17, 15,	 17, 14, 12, 16, 10, 12, 12,	
 10, 15, 15, 11, 11, 12, 13,	 10, 10, 10, 15, 11, 11, 12,	 14, 14, 10, 12, 12, 11, 15,	 14, 10, 15, 11, 15, 11, 15,	 15, 13, 10, 15, 12, 13, 10,	 12, 15, 11, 10, 14, 12, 15,	 15, 11, 10, 11, 10, 10, 13,	 10, 15, 10, 12, 13, 13, 11,	 12, 14, 10, 10, 12, 14, 15,	 12, 12, 14, 12, 15, 15, 13,	
 13, 15, 12, 10, 11, 10, 11,	 15, 10, 14, 13, 13, 15, 13,	 11, 12, 14, 11, 15, 12, 11,	 11, 11, 15, 11, 11, 11, 14,	 14, 10, 11, 12, 14, 11, 10,	 13, 10, 12, 10, 14, 10, 13,	 12, 13, 14, 11, 14, 12, 10,	 13, 14, 10, 12, 13, 15, 11,	 12, 14, 15, 11, 12, 14, 11,	 10, 14, 11, 11, 14, 13, 11,	
 18, 18, 12, 12, 13, 13, 13,	 17, 16, 11, 12, 15, 12, 11,	 18, 18, 16, 18, 10, 13, 14,	 12, 10, 18, 14, 14, 11, 15,	 16, 18, 18, 13, 15, 18, 16,	 18, 11, 17, 15, 17, 16, 17,	 13, 18, 17, 11, 17, 12, 17,	 17, 13, 12, 18, 13, 18, 13,	 15, 10, 16, 12, 16, 13, 16,	 12, 13, 11, 12, 14, 18, 15,	
 10, 10, 10, 12, 12, 12, 10,	 12, 12, 15, 10, 10, 12, 10,	 13, 14, 10, 11, 14, 12, 10,	 15, 12, 14, 15, 10, 13, 15,	 12, 13, 14, 13, 11, 13, 15,	 11, 15, 13, 13, 10, 10, 12,	 10, 12, 12, 11, 10, 11, 12,	 12, 13, 11, 15, 15, 13, 15,	 14, 11, 14, 10, 12, 13, 13,	 13, 14, 10, 12, 11, 13, 10,	
 11, 13, 10, 11, 13, 12, 11,	 13, 13, 13, 10, 14, 12, 13,	 14, 10, 12, 10, 15, 11, 10,	 11, 12, 14, 12, 10, 12, 14,	 11, 14, 12, 13, 15, 12, 12,	 13, 15, 13, 10, 10, 15, 14,	 15, 11, 12, 11, 11, 12, 11,	 14, 13, 11, 15, 13, 13, 15,	 11, 10, 12, 13, 14, 14, 14,	 13, 15, 14, 14, 12, 12, 15,	
 10, 13, 13, 13, 15, 10, 12,	 12, 11, 11, 16, 12, 12, 12,	 16, 14, 11, 14, 12, 10, 15,	 16, 14, 12, 16, 14, 11, 12,	 16, 11, 12, 16, 14, 14, 11,	 10, 14, 13, 10, 13, 13, 15,	 14, 15, 15, 13, 10, 16, 10,	 13, 10, 14, 12, 12, 14, 16,	 14, 15, 12, 13, 16, 14, 10,	 11, 16, 11, 10, 14, 13, 15,	
 15, 16, 14, 17, 16, 10, 12,	 10, 16, 10, 13, 13, 11, 17,	 10, 15, 10, 14, 10, 14, 17,	 16, 16, 13, 12, 16, 17, 17,	 13, 16, 15, 11, 14, 12, 10,	 12, 12, 13, 12, 10, 13, 16,	 13, 14, 15, 13, 11, 15, 17,	 11, 12, 16, 10, 10, 12, 12,	 16, 11, 11, 12, 17, 16, 13,	 13, 10, 13, 15, 13, 16, 17,	
 13, 10, 13, 11, 16, 12, 14,	 10, 10, 12, 10, 13, 13, 10,	 12, 10, 12, 11, 15, 16, 13,	 11, 14, 14, 15, 15, 12, 13,	 11, 12, 13, 13, 11, 14, 14,	 10, 10, 11, 10, 15, 11, 11,	 11, 13, 16, 13, 13, 10, 12,	 10, 14, 14, 11, 11, 11, 10,	 10, 11, 11, 16, 12, 12, 12,	 13, 10, 14, 11, 15, 16, 10,	
 13, 15, 16, 12, 11, 13, 13,	 13, 13, 15, 13, 11, 10, 12,	 10, 12, 12, 10, 11, 12, 15,	 11, 14, 15, 14, 12, 13, 14,	 10, 10, 14, 11, 15, 13, 13,	 15, 16, 16, 16, 11, 13, 12,	 10, 13, 14, 10, 15, 15, 16,	 15, 15, 12, 16, 10, 10, 12,	 13, 11, 16, 13, 11, 11, 15,	 15, 14, 16, 11, 11, 16, 10,	
 11, 12, 10, 15, 10, 11, 10,	 14, 11, 14, 10, 11, 10, 11,	 15, 11, 14, 11, 12, 15, 14,	 13, 10, 14, 14, 11, 10, 12,	 13, 14, 12, 14, 10, 10, 12,	 14, 10, 10, 10, 11, 12, 10,	 13, 10, 10, 10, 11, 14, 11,	 11, 12, 13, 15, 10, 12, 11,	 12, 10, 14, 15, 12, 14, 11,	 10, 15, 11, 14, 15, 15, 13,	
 11, 14, 16, 15, 17, 11, 15,	 17, 13, 17, 18, 13, 12, 15,	 13, 18, 11, 18, 13, 13, 15,	 15, 14, 15, 18, 17, 17, 14,	 17, 11, 17, 17, 15, 13, 13,	 12, 12, 10, 10, 13, 15, 16,	 16, 15, 13, 11, 12, 14, 17,	 15, 15, 14, 18, 10, 17, 15,	 16, 15, 11, 14, 16, 16, 12,	 11, 17, 16, 13, 11, 14, 13,	
 11, 11, 13, 10, 11, 11, 11,	 10, 10, 10, 14, 12, 11, 13,	 10, 13, 13, 14, 10, 15, 15,	 10, 12, 13, 14, 15, 14, 15,	 10, 10, 12, 15, 11, 14, 15,	 10, 13, 14, 11, 14, 15, 15,	 10, 14, 10, 14, 12, 11, 12,	 12, 10, 10, 10, 13, 13, 13,	 10, 11, 12, 10, 15, 13, 13,	 10, 15, 11, 11, 12, 15, 10,	
 10, 16, 13, 15, 13, 11, 11,	 11, 17, 12, 15, 19, 18, 15,	 12, 17, 18, 16, 18, 13, 18,	 17, 10, 14, 15, 15, 11, 14,	 17, 18, 14, 10, 15, 19, 15,	 10, 11, 18, 13, 10, 10, 18,	 19, 18, 13, 14, 17, 14, 10,	 15, 17, 11, 12, 19, 17, 18,	 14, 18, 12, 13, 16, 19, 15,	 13, 18, 10, 13, 11, 11, 18,	
 15, 11, 16, 14, 11, 15, 11,	 13, 15, 11, 11, 13, 15, 10,	 14, 12, 12, 13, 13, 10, 12,	 13, 15, 14, 12, 14, 13, 16,	 15, 14, 15, 11, 16, 15, 15,	 15, 11, 14, 11, 14, 14, 10,	 10, 10, 16, 12, 13, 16, 13,	 16, 16, 15, 10, 14, 10, 13,	 10, 14, 12, 13, 11, 10, 14,	 15, 13, 11, 11, 14, 13, 11,	
 13, 15, 13, 12, 10, 13, 13,	 10, 13, 12, 13, 10, 13, 13,	 15, 12, 10, 15, 13, 12, 10,	 15, 15, 11, 10, 13, 14, 12,	 12, 12, 11, 14, 11, 14, 10,	 15, 10, 12, 15, 13, 14, 11,	 11, 15, 14, 10, 12, 14, 15,	 15, 14, 15, 12, 11, 15, 11,	 12, 11, 11, 15, 13, 12, 13,	 13, 10, 11, 10, 14, 13, 10,	
 11, 12, 11, 11, 11, 13, 11,	 13, 11, 15, 11, 13, 14, 13,	 14, 11, 14, 11, 13, 15, 10,	 14, 15, 11, 15, 14, 12, 10,	 12, 10, 10, 12, 10, 15, 13,	 11, 12, 14, 13, 11, 11, 14,	 12, 10, 15, 10, 15, 12, 11,	 10, 15, 15, 15, 15, 14, 14,	 13, 11, 14, 13, 15, 12, 15,	 15, 15, 10, 10, 15, 15, 11,	
 14, 14, 13, 10, 12, 13, 11,	 12, 13, 10, 12, 10, 14, 15,	 13, 12, 14, 14, 11, 10, 12,	 10, 11, 15, 15, 10, 10, 14,	 14, 13, 13, 10, 11, 11, 11,	 14, 12, 10, 10, 13, 14, 10,	 13, 12, 10, 11, 13, 14, 13,	 14, 12, 15, 13, 13, 15, 10,	 12, 15, 14, 14, 12, 10, 14,	 13, 11, 15, 15, 13, 13, 15,	
 12, 15, 14, 10, 14, 15, 11,	 11, 10, 10, 12, 15, 12, 11,	 11, 12, 16, 12, 11, 11, 15,	 10, 10, 11, 12, 16, 10, 11,	 12, 11, 16, 14, 14, 11, 12,	 10, 16, 14, 16, 16, 14, 11,	 12, 14, 10, 13, 10, 15, 15,	 16, 14, 13, 15, 14, 13, 15,	 11, 13, 16, 13, 12, 15, 15,	 15, 14, 10, 15, 13, 12, 14,	
 10, 14, 11, 11, 10, 15, 13,	 10, 15, 10, 13, 11, 12, 14,	 13, 15, 10, 10, 14, 13, 15,	 15, 11, 14, 15, 10, 13, 11,	 10, 13, 10, 15, 12, 11, 14,	 10, 15, 11, 10, 14, 15, 11,	 10, 12, 10, 13, 11, 10, 12,	 10, 11, 11, 13, 11, 14, 12,	 11, 15, 11, 11, 12, 15, 14,	 12, 15, 12, 12, 14, 12, 10,	
 14, 11, 16, 12, 13, 14, 10,	 17, 14, 10, 13, 12, 15, 12,	 15, 11, 12, 16, 14, 11, 17,	 13, 14, 10, 17, 15, 16, 12,	 11, 12, 14, 16, 14, 12, 10,	 17, 16, 10, 16, 13, 10, 11,	 15, 16, 13, 12, 17, 15, 10,	 14, 16, 17, 17, 13, 17, 16,	 10, 16, 10, 12, 10, 15, 10,	 14, 17, 10, 14, 16, 11, 12,	
 11, 15, 12, 10, 11, 11, 14,	 15, 13, 12, 15, 11, 11, 14,	 14, 11, 14, 15, 11, 11, 13,	 11, 14, 15, 14, 15, 13, 12,	 11, 10, 14, 10, 14, 10, 10,	 13, 10, 12, 12, 13, 12, 15,	 12, 12, 13, 15, 13, 10, 14,	 12, 15, 11, 11, 13, 14, 13,	 12, 15, 15, 12, 14, 14, 12,	 10, 12, 11, 13, 12, 13, 10,	
 15, 14, 13, 10, 10, 11, 15,	 11, 11, 11, 13, 14, 10, 12,	 11, 14, 10, 13, 13, 15, 13,	 11, 13, 10, 11, 14, 15, 15,	 10, 10, 13, 14, 14, 10, 14,	 14, 15, 11, 15, 14, 12, 10,	 12, 10, 13, 13, 14, 11, 15,	 15, 10, 12, 15, 12, 10, 10,	 10, 15, 13, 10, 10, 14, 12,	 12, 13, 10, 11, 10, 15, 14,	
 13, 13, 13, 11, 13, 12, 17,	 11, 17, 10, 13, 15, 14, 10,	 11, 11, 14, 13, 14, 10, 10,	 10, 14, 14, 11, 11, 13, 14,	 16, 10, 10, 11, 14, 13, 12,	 17, 15, 11, 11, 14, 11, 14,	 12, 16, 14, 13, 17, 10, 17,	 13, 10, 17, 14, 15, 13, 15,	 16, 16, 11, 14, 17, 11, 15,	 13, 15, 10, 12, 12, 11, 13,	
 14, 15, 12, 14, 13, 11, 14,	 13, 16, 12, 13, 13, 11, 14,	 15, 12, 10, 10, 16, 15, 16,	 13, 10, 11, 12, 16, 12, 16,	 16, 10, 16, 13, 15, 10, 10,	 16, 11, 13, 12, 15, 15, 14,	 10, 15, 11, 15, 15, 10, 15,	 12, 15, 15, 16, 13, 14, 16,	 12, 16, 13, 12, 16, 13, 13,	 13, 11, 14, 12, 10, 15, 13,	
 12, 15, 12, 10, 14, 14, 11,	 11, 13, 13, 11, 14, 15, 14,	 15, 13, 13, 13, 15, 10, 11,	 12, 13, 14, 10, 14, 12, 10,	 12, 11, 13, 14, 15, 13, 14,	 11, 15, 14, 13, 13, 15, 12,	 15, 14, 10, 14, 15, 11, 11,	 12, 11, 10, 14, 12, 13, 15,	 10, 15, 13, 11, 15, 14, 15,	 12, 15, 12, 13, 14, 10, 14,	
 10, 16, 16, 10, 12, 15, 12,	 16, 14, 15, 16, 10, 16, 16,	 13, 13, 10, 13, 10, 15, 14,	 13, 10, 11, 16, 12, 16, 12,	 14, 14, 11, 12, 13, 16, 13,	 15, 14, 15, 12, 16, 13, 16,	 10, 10, 15, 13, 11, 14, 16,	 10, 12, 12, 11, 13, 13, 16,	 13, 10, 11, 15, 12, 10, 11,	 13, 16, 12, 16, 12, 15, 16,	
 15, 13, 11, 14, 14, 10, 11,	 10, 11, 13, 12, 13, 14, 13,	 15, 10, 10, 10, 11, 11, 12,	 11, 10, 13, 11, 11, 12, 12,	 15, 12, 14, 14, 15, 15, 11,	 11, 13, 12, 12, 13, 15, 14,	 10, 11, 15, 13, 11, 13, 11,	 10, 14, 13, 11, 15, 14, 12,	 14, 14, 14, 11, 10, 10, 13,	 14, 15, 14, 15, 11, 15, 15,	
  0,  0,  0,  0,  0,  0,  0,	  0,  0,  0,  0,  0,  0,  0,	  0,  0,  0,  0,  0,  0,  0,	  0,  0,  0,  0,  0,  0,  0,	  0,  0,  0,  0,  0,  0,  0,	  0,  0,  0,  0,  0,  0,  0,	  0,  0,  0,  0,  0,  0,  0,	  0,  0,  0,  0,  0,  0,  0,	  0,  0,  0,  0,  0,  0,  0,	  0,  0,  0,  0,  0,  0,  0,	
]);

rs =
[|  true,  true,  true,  true,  true,  true,  true,	 	
 | false,  false,  true,  false,  false,  false,  false,	 	
 | true,  false,  false,  false,  false,  false,  false,	 	
 | false,  false,  false,  false,  false,  true,  false,	 	
 | false,  false,  false,  false,  true,  false,  false,	 	
 | false,  false,  false,  true,  false,  false,  false,	 	
 | false,  false,  false,  true,  false,  false,  false,	 	
 | false,  false,  true,  false,  false,  false,  false,	 	
 | false,  false,  false,  false,  false,  true,  false,	 
 | false,  false,  false,  false,  true,  false,  false,	
 | false,  false,  true,  false,  false,  false,  false,	
 | false,  true,  false,  false,  false,  false,  false,	  	
 | false,  false,  false,  false,  false,  true,  false,	  	
 | false,  false,  false,  true,  false,  false,  false,	  	
 | false,  true,  false,  false,  false,  false,  false,	  	
 | false,  false,  false,  false,  false,  true,  false,	  	
 | false,  true,  false,  false,  false,  false,  false,	  	
 | false,  false,  true,  false,  false,  false,  false,	  	
 | false,  false,  false,  false,  true,  false,  false,	  
 | false,  false,  false,  false,  false,  false,  true,	  	
 | true,  false,  false,  false,  false,  false,  false,	  	
 | false,  true,  false,  false,  false,  false,  false,	  	
 | true,  false,  false,  false,  false,  false,  false,	  	
 | false,  false,  false,  false,  true,  false,  false,	  	
 | false,  false,  false,  false,  true,  false,  false,	  	
 | false,  false,  true,  false,  false,  false,  false,	  	
 | false,  false,  false,  true,  false,  false,  false,	  	
 | false,  false,  false,  false,  false,  false,  true,	  	
 | false,  true,  false,  false,  false,  false,  false,	  
 | false,  false,  false,  false,  false,  false,  true,	  	
 | true,  false,  false,  false,  false,  false,  false,	  	
 | false,  false,  false,  true,  false,  false,  false,	  	
 | false,  false,  false,  false,  true,  false,  false,	  	
 | true,  false,  false,  false,  false,  false,  false,	  
 | false,  false,  false,  false,  false,  false,  true,	  	
 | true,  false,  false,  false,  false,  false,  false,	  
 | true,  false,  false,  false,  false,  false,  false,	  	
 | false,  false,  false,  true,  false,  false,  false,	  	
 | false,  false,  true,  false,  false,  false,  false,	  	
 | false,  false,  false,  false,  false,  false,  true,	  	
 | true,  false,  false,  false,  false,  false,  false,	  	
 | true,  true,    true,   true,   true,  true,    true,	  	
|];

d=[|0, 7, 4, 13, 28, 10, 1, 16, 22, 25, 26, 13, 21, 24, 0, 22, 21, 6, 27, 0, 24, 25, 6, 26, 17, 16, 20, 22, 8, 19, 28, 14, 12, 13, 8, 0, 25, 26, 6, 0, 12, 0, 
|7, 0, 3, 12, 23, 14, 7, 24, 18, 32, 33, 10, 27, 19, 7, 28, 27, 6, 33, 7, 25, 33, 11, 32, 12, 21, 27, 25, 12, 17, 27, 21, 10, 17, 2, 7, 30, 23, 7, 7, 17, 7, 
|4, 3, 0, 12, 25, 11, 3, 20, 20, 28, 29, 10, 24, 21, 4, 25, 24, 4, 30, 4, 24, 30, 8, 29, 14, 19, 24, 24, 10, 18, 27, 18, 10, 14, 4, 4, 28, 25, 5, 4, 14, 4, 
|13, 12, 12, 0, 34, 23, 12, 27, 10, 36, 38, 23, 35, 32, 13, 35, 33, 16, 39, 13, 37, 35, 19, 39, 24, 12, 22, 14, 7, 6, 39, 17, 3, 26, 15, 13, 22, 14, 7, 13, 25, 13, 
|28, 23, 25, 34, 0, 24, 28, 40, 37, 45, 44, 16, 34, 6, 28, 35, 36, 22, 44, 28, 24, 48, 26, 38, 11, 44, 49, 48, 35, 38, 15, 42, 31, 26, 21, 28, 53, 40, 30, 28, 28, 28, 
|10, 14, 11, 23, 24, 0, 11, 15, 32, 21, 21, 9, 13, 18, 10, 14, 13, 8, 21, 10, 13, 24, 4, 18, 15, 25, 27, 33, 19, 30, 20, 21, 22, 3, 12, 10, 32, 36, 16, 10, 3, 10, 
|1, 7, 3, 12, 28, 11, 0, 17, 21, 25, 27, 13, 22, 24, 1, 23, 22, 6, 28, 1, 24, 26, 7, 27, 17, 16, 21, 22, 8, 18, 29, 14, 11, 13, 7, 1, 25, 25, 5, 1, 13, 1, 
|16, 24, 20, 27, 40, 15, 17, 0, 37, 9, 11, 24, 14, 34, 16, 13, 10, 19, 12, 16, 24, 9, 14, 16, 30, 21, 15, 29, 20, 33, 34, 13, 27, 14, 23, 16, 23, 41, 21, 16, 12, 16, 
|22, 18, 20, 10, 37, 32, 21, 37, 0, 46, 48, 29, 44, 36, 22, 45, 43, 24, 49, 22, 44, 45, 28, 49, 28, 21, 31, 18, 17, 5, 45, 26, 10, 35, 21, 22, 29, 4, 16, 22, 34, 22, 
|25, 32, 28, 36, 45, 21, 25, 9, 46, 0, 3, 30, 13, 39, 25, 12, 9, 27, 5, 25, 25, 5, 21, 12, 36, 29, 22, 37, 29, 42, 36, 22, 36, 19, 31, 25, 30, 50, 30, 25, 17, 25, 
|26, 33, 29, 38, 44, 21, 27, 11, 48, 3, 0, 30, 11, 38, 26, 9, 7, 27, 1, 26, 22, 8, 22, 9, 36, 32, 25, 40, 31, 44, 34, 25, 38, 18, 31, 26, 33, 52, 32, 26, 17, 26, 
|13, 10, 10, 23, 16, 9, 13, 24, 29, 30, 30, 0, 21, 11, 13, 22, 22, 7, 30, 13, 16, 33, 9, 26, 6, 29, 33, 35, 20, 28, 16, 27, 20, 11, 7, 13, 38, 33, 16, 13, 12, 13, 
|21, 27, 24, 35, 34, 13, 22, 14, 44, 13, 11, 21, 0, 27, 21, 1, 4, 21, 10, 21, 11, 18, 16, 5, 27, 33, 30, 41, 29, 41, 23, 26, 34, 10, 25, 21, 37, 48, 28, 21, 10, 21, 
|24, 19, 21, 32, 6, 18, 24, 34, 36, 39, 38, 11, 27, 0, 24, 29, 30, 18, 38, 24, 18, 42, 20, 32, 8, 40, 44, 45, 31, 36, 10, 38, 29, 20, 17, 24, 49, 40, 26, 24, 21, 24, 
|0, 7, 4, 13, 28, 10, 1, 16, 22, 25, 26, 13, 21, 24, 0, 22, 21, 6, 27, 0, 24, 25, 6, 26, 17, 16, 20, 22, 8, 19, 28, 14, 12, 13, 8, 0, 25, 26, 6, 0, 12, 0, 
|22, 28, 25, 35, 35, 14, 23, 13, 45, 12, 9, 22, 1, 29, 22, 0, 3, 22, 9, 22, 13, 17, 17, 4, 28, 33, 29, 41, 29, 42, 25, 26, 34, 11, 26, 22, 37, 49, 28, 22, 11, 22, 
|21, 27, 24, 33, 36, 13, 22, 10, 43, 9, 7, 22, 4, 30, 21, 3, 0, 21, 7, 21, 15, 14, 16, 5, 29, 30, 26, 38, 27, 40, 27, 24, 33, 11, 25, 21, 34, 47, 27, 21, 10, 21, 
|6, 6, 4, 16, 22, 8, 6, 19, 24, 27, 27, 7, 21, 18, 6, 22, 21, 0, 28, 6, 20, 29, 5, 26, 11, 22, 26, 28, 13, 22, 23, 20, 15, 11, 4, 6, 31, 29, 10, 6, 11, 6, 
|27, 33, 30, 39, 44, 21, 28, 12, 49, 5, 1, 30, 10, 38, 27, 9, 7, 28, 0, 27, 22, 9, 23, 8, 36, 33, 27, 41, 32, 45, 34, 26, 39, 18, 32, 27, 34, 53, 33, 27, 17, 27, 
|0, 7, 4, 13, 28, 10, 1, 16, 22, 25, 26, 13, 21, 24, 0, 22, 21, 6, 27, 0, 24, 25, 6, 26, 17, 16, 20, 22, 8, 19, 28, 14, 12, 13, 8, 0, 25, 26, 6, 0, 12, 0, 
|24, 25, 24, 37, 24, 13, 24, 24, 44, 25, 22, 16, 11, 18, 24, 13, 15, 20, 22, 24, 0, 29, 17, 15, 21, 39, 38, 46, 32, 43, 12, 34, 35, 11, 23, 24, 45, 49, 29, 24, 13, 24, 
|25, 33, 30, 35, 48, 24, 26, 9, 45, 5, 8, 33, 18, 42, 25, 17, 14, 29, 9, 25, 29, 0, 24, 17, 39, 27, 18, 34, 28, 41, 41, 20, 36, 22, 33, 25, 26, 49, 30, 25, 20, 25, 
|6, 11, 8, 19, 26, 4, 7, 14, 28, 21, 22, 9, 16, 20, 6, 17, 16, 5, 23, 6, 17, 24, 0, 21, 15, 21, 24, 28, 14, 25, 23, 18, 18, 6, 9, 6, 29, 32, 12, 6, 6, 6, 
|26, 32, 29, 39, 38, 18, 27, 16, 49, 12, 9, 26, 5, 32, 26, 4, 5, 26, 8, 26, 15, 17, 21, 0, 32, 36, 32, 44, 33, 45, 27, 29, 38, 15, 30, 26, 39, 53, 32, 26, 15, 26, 
|17, 12, 14, 24, 11, 15, 17, 30, 28, 36, 36, 6, 27, 8, 17, 28, 29, 11, 36, 17, 21, 39, 15, 32, 0, 33, 38, 37, 24, 28, 17, 31, 21, 18, 10, 17, 42, 32, 19, 17, 19, 17, 
|16, 21, 19, 12, 44, 25, 16, 21, 21, 29, 32, 29, 33, 40, 16, 33, 30, 22, 33, 16, 39, 27, 21, 36, 33, 0, 10, 8, 9, 16, 45, 7, 15, 27, 23, 16, 9, 23, 14, 16, 25, 16, 
|20, 27, 24, 22, 49, 27, 21, 15, 31, 22, 25, 33, 30, 44, 20, 29, 26, 26, 27, 20, 38, 18, 24, 32, 38, 10, 0, 17, 17, 26, 47, 6, 24, 27, 28, 20, 7, 34, 21, 20, 25, 20, 
|22, 25, 24, 14, 48, 33, 22, 29, 18, 37, 40, 35, 41, 45, 22, 41, 38, 28, 41, 22, 46, 34, 28, 44, 37, 8, 17, 0, 14, 13, 51, 15, 17, 34, 27, 22, 12, 19, 18, 22, 33, 22, 
|8, 12, 10, 7, 35, 19, 8, 20, 17, 29, 31, 20, 29, 31, 8, 29, 27, 13, 32, 8, 32, 28, 14, 33, 24, 9, 17, 14, 0, 13, 37, 10, 8, 21, 14, 8, 18, 21, 5, 8, 20, 8, 
|19, 17, 18, 6, 38, 30, 18, 33, 5, 42, 44, 28, 41, 36, 19, 42, 40, 22, 45, 19, 43, 41, 25, 45, 28, 16, 26, 13, 13, 0, 44, 21, 7, 32, 20, 19, 24, 8, 13, 19, 31, 19, 
|28, 27, 27, 39, 15, 20, 29, 34, 45, 36, 34, 16, 23, 10, 28, 25, 27, 23, 34, 28, 12, 41, 23, 27, 17, 45, 47, 51, 37, 44, 0, 41, 37, 20, 24, 28, 52, 49, 33, 28, 22, 28, 
|14, 21, 18, 17, 42, 21, 14, 13, 26, 22, 25, 27, 26, 38, 14, 26, 24, 20, 26, 14, 34, 20, 18, 29, 31, 7, 6, 15, 10, 21, 41, 0, 18, 22, 22, 14, 11, 29, 15, 14, 20, 14, 
|12, 10, 10, 3, 31, 22, 11, 27, 10, 36, 38, 20, 34, 29, 12, 34, 33, 15, 39, 12, 35, 36, 18, 38, 21, 15, 24, 17, 8, 7, 37, 18, 0, 25, 12, 12, 25, 14, 6, 12, 24, 12, 
|13, 17, 14, 26, 26, 3, 13, 14, 35, 19, 18, 11, 10, 20, 13, 11, 11, 11, 18, 13, 11, 22, 6, 15, 18, 27, 27, 34, 21, 32, 20, 22, 25, 0, 15, 13, 33, 39, 19, 13, 2, 13, 
|8, 2, 4, 15, 21, 12, 7, 23, 21, 31, 31, 7, 25, 17, 8, 26, 25, 4, 32, 8, 23, 33, 9, 30, 10, 23, 28, 27, 14, 20, 24, 22, 12, 15, 0, 8, 32, 26, 9, 8, 15, 8, 
|0, 7, 4, 13, 28, 10, 1, 16, 22, 25, 26, 13, 21, 24, 0, 22, 21, 6, 27, 0, 24, 25, 6, 26, 17, 16, 20, 22, 8, 19, 28, 14, 12, 13, 8, 0, 25, 26, 6, 0, 12, 0, 
|25, 30, 28, 22, 53, 32, 25, 23, 29, 30, 33, 38, 37, 49, 25, 37, 34, 31, 34, 25, 45, 26, 29, 39, 42, 9, 7, 12, 18, 24, 52, 11, 25, 33, 32, 25, 0, 31, 23, 25, 31, 25, 
|26, 23, 25, 14, 40, 36, 25, 41, 4, 50, 52, 33, 48, 40, 26, 49, 47, 29, 53, 26, 49, 49, 32, 53, 32, 23, 34, 19, 21, 8, 49, 29, 14, 39, 26, 26, 31, 0, 20, 26, 38, 26, 
|6, 7, 5, 7, 30, 16, 5, 21, 16, 30, 32, 16, 28, 26, 6, 28, 27, 10, 33, 6, 29, 30, 12, 32, 19, 14, 21, 18, 5, 13, 33, 15, 6, 19, 9, 6, 23, 20, 0, 6, 18, 6, 
|0, 7, 4, 13, 28, 10, 1, 16, 22, 25, 26, 13, 21, 24, 0, 22, 21, 6, 27, 0, 24, 25, 6, 26, 17, 16, 20, 22, 8, 19, 28, 14, 12, 13, 8, 0, 25, 26, 6, 0, 12, 0, 
|12, 17, 14, 25, 28, 3, 13, 12, 34, 17, 17, 12, 10, 21, 12, 11, 10, 11, 17, 12, 13, 20, 6, 15, 19, 25, 25, 33, 20, 31, 22, 20, 24, 2, 15, 12, 31, 38, 18, 12, 0, 12, 
|0, 7, 4, 13, 28, 10, 1, 16, 22, 25, 26, 13, 21, 24, 0, 22, 21, 6, 27, 0, 24, 25, 6, 26, 17, 16, 20, 22, 8, 19, 28, 14, 12, 13, 8, 0, 25, 26, 6, 0, 12, 0, 
|];
